Minimize
 
Subject To
 R0: x[0,0,1] + x[0,0,2] + x[0,0,3] + x[0,0,4] + x[0,0,5] + x[0,0,6] = 1
 R1: x[0,1,1] + x[0,1,2] + x[0,1,3] + x[0,1,4] + x[0,1,5] + x[0,1,6] = 1
 R2: x[0,2,1] + x[0,2,2] + x[0,2,3] + x[0,2,4] + x[0,2,5] + x[0,2,6] = 1
 R3: x[0,3,1] + x[0,3,2] + x[0,3,3] + x[0,3,4] + x[0,3,5] + x[0,3,6] = 1
 R4: x[0,4,1] + x[0,4,2] + x[0,4,3] + x[0,4,4] + x[0,4,5] + x[0,4,6] = 1
 R5: x[0,5,1] + x[0,5,2] + x[0,5,3] + x[0,5,4] + x[0,5,5] + x[0,5,6] = 1
 R6: x[1,0,1] + x[1,0,2] + x[1,0,3] + x[1,0,4] + x[1,0,5] + x[1,0,6] = 1
 R7: x[1,1,1] + x[1,1,2] + x[1,1,3] + x[1,1,4] + x[1,1,5] + x[1,1,6] = 1
 R8: x[1,2,1] + x[1,2,2] + x[1,2,3] + x[1,2,4] + x[1,2,5] + x[1,2,6] = 1
 R9: x[1,3,1] + x[1,3,2] + x[1,3,3] + x[1,3,4] + x[1,3,5] + x[1,3,6] = 1
 R10: x[1,4,1] + x[1,4,2] + x[1,4,3] + x[1,4,4] + x[1,4,5] + x[1,4,6] = 1
 R11: x[1,5,1] + x[1,5,2] + x[1,5,3] + x[1,5,4] + x[1,5,5] + x[1,5,6] = 1
 R12: x[2,0,1] + x[2,0,2] + x[2,0,3] + x[2,0,4] + x[2,0,5] + x[2,0,6] = 1
 R13: x[2,1,1] + x[2,1,2] + x[2,1,3] + x[2,1,4] + x[2,1,5] + x[2,1,6] = 1
 R14: x[2,2,1] + x[2,2,2] + x[2,2,3] + x[2,2,4] + x[2,2,5] + x[2,2,6] = 1
 R15: x[2,3,1] + x[2,3,2] + x[2,3,3] + x[2,3,4] + x[2,3,5] + x[2,3,6] = 1
 R16: x[2,4,1] + x[2,4,2] + x[2,4,3] + x[2,4,4] + x[2,4,5] + x[2,4,6] = 1
 R17: x[2,5,1] + x[2,5,2] + x[2,5,3] + x[2,5,4] + x[2,5,5] + x[2,5,6] = 1
 R18: x[3,0,1] + x[3,0,2] + x[3,0,3] + x[3,0,4] + x[3,0,5] + x[3,0,6] = 1
 R19: x[3,1,1] + x[3,1,2] + x[3,1,3] + x[3,1,4] + x[3,1,5] + x[3,1,6] = 1
 R20: x[3,2,1] + x[3,2,2] + x[3,2,3] + x[3,2,4] + x[3,2,5] + x[3,2,6] = 1
 R21: x[3,3,1] + x[3,3,2] + x[3,3,3] + x[3,3,4] + x[3,3,5] + x[3,3,6] = 1
 R22: x[3,4,1] + x[3,4,2] + x[3,4,3] + x[3,4,4] + x[3,4,5] + x[3,4,6] = 1
 R23: x[3,5,1] + x[3,5,2] + x[3,5,3] + x[3,5,4] + x[3,5,5] + x[3,5,6] = 1
 R24: x[4,0,1] + x[4,0,2] + x[4,0,3] + x[4,0,4] + x[4,0,5] + x[4,0,6] = 1
 R25: x[4,1,1] + x[4,1,2] + x[4,1,3] + x[4,1,4] + x[4,1,5] + x[4,1,6] = 1
 R26: x[4,2,1] + x[4,2,2] + x[4,2,3] + x[4,2,4] + x[4,2,5] + x[4,2,6] = 1
 R27: x[4,3,1] + x[4,3,2] + x[4,3,3] + x[4,3,4] + x[4,3,5] + x[4,3,6] = 1
 R28: x[4,4,1] + x[4,4,2] + x[4,4,3] + x[4,4,4] + x[4,4,5] + x[4,4,6] = 1
 R29: x[4,5,1] + x[4,5,2] + x[4,5,3] + x[4,5,4] + x[4,5,5] + x[4,5,6] = 1
 R30: x[5,0,1] + x[5,0,2] + x[5,0,3] + x[5,0,4] + x[5,0,5] + x[5,0,6] = 1
 R31: x[5,1,1] + x[5,1,2] + x[5,1,3] + x[5,1,4] + x[5,1,5] + x[5,1,6] = 1
 R32: x[5,2,1] + x[5,2,2] + x[5,2,3] + x[5,2,4] + x[5,2,5] + x[5,2,6] = 1
 R33: x[5,3,1] + x[5,3,2] + x[5,3,3] + x[5,3,4] + x[5,3,5] + x[5,3,6] = 1
 R34: x[5,4,1] + x[5,4,2] + x[5,4,3] + x[5,4,4] + x[5,4,5] + x[5,4,6] = 1
 R35: x[5,5,1] + x[5,5,2] + x[5,5,3] + x[5,5,4] + x[5,5,5] + x[5,5,6] = 1
 R36: x[0,0,1] + x[1,0,1] + x[2,0,1] + x[3,0,1] + x[4,0,1] + x[5,0,1] = 1
 R37: x[0,1,1] + x[1,1,1] + x[2,1,1] + x[3,1,1] + x[4,1,1] + x[5,1,1] = 1
 R38: x[0,2,1] + x[1,2,1] + x[2,2,1] + x[3,2,1] + x[4,2,1] + x[5,2,1] = 1
 R39: x[0,3,1] + x[1,3,1] + x[2,3,1] + x[3,3,1] + x[4,3,1] + x[5,3,1] = 1
 R40: x[0,4,1] + x[1,4,1] + x[2,4,1] + x[3,4,1] + x[4,4,1] + x[5,4,1] = 1
 R41: x[0,5,1] + x[1,5,1] + x[2,5,1] + x[3,5,1] + x[4,5,1] + x[5,5,1] = 1
 R42: x[0,0,2] + x[1,0,2] + x[2,0,2] + x[3,0,2] + x[4,0,2] + x[5,0,2] = 1
 R43: x[0,1,2] + x[1,1,2] + x[2,1,2] + x[3,1,2] + x[4,1,2] + x[5,1,2] = 1
 R44: x[0,2,2] + x[1,2,2] + x[2,2,2] + x[3,2,2] + x[4,2,2] + x[5,2,2] = 1
 R45: x[0,3,2] + x[1,3,2] + x[2,3,2] + x[3,3,2] + x[4,3,2] + x[5,3,2] = 1
 R46: x[0,4,2] + x[1,4,2] + x[2,4,2] + x[3,4,2] + x[4,4,2] + x[5,4,2] = 1
 R47: x[0,5,2] + x[1,5,2] + x[2,5,2] + x[3,5,2] + x[4,5,2] + x[5,5,2] = 1
 R48: x[0,0,3] + x[1,0,3] + x[2,0,3] + x[3,0,3] + x[4,0,3] + x[5,0,3] = 1
 R49: x[0,1,3] + x[1,1,3] + x[2,1,3] + x[3,1,3] + x[4,1,3] + x[5,1,3] = 1
 R50: x[0,2,3] + x[1,2,3] + x[2,2,3] + x[3,2,3] + x[4,2,3] + x[5,2,3] = 1
 R51: x[0,3,3] + x[1,3,3] + x[2,3,3] + x[3,3,3] + x[4,3,3] + x[5,3,3] = 1
 R52: x[0,4,3] + x[1,4,3] + x[2,4,3] + x[3,4,3] + x[4,4,3] + x[5,4,3] = 1
 R53: x[0,5,3] + x[1,5,3] + x[2,5,3] + x[3,5,3] + x[4,5,3] + x[5,5,3] = 1
 R54: x[0,0,4] + x[1,0,4] + x[2,0,4] + x[3,0,4] + x[4,0,4] + x[5,0,4] = 1
 R55: x[0,1,4] + x[1,1,4] + x[2,1,4] + x[3,1,4] + x[4,1,4] + x[5,1,4] = 1
 R56: x[0,2,4] + x[1,2,4] + x[2,2,4] + x[3,2,4] + x[4,2,4] + x[5,2,4] = 1
 R57: x[0,3,4] + x[1,3,4] + x[2,3,4] + x[3,3,4] + x[4,3,4] + x[5,3,4] = 1
 R58: x[0,4,4] + x[1,4,4] + x[2,4,4] + x[3,4,4] + x[4,4,4] + x[5,4,4] = 1
 R59: x[0,5,4] + x[1,5,4] + x[2,5,4] + x[3,5,4] + x[4,5,4] + x[5,5,4] = 1
 R60: x[0,0,5] + x[1,0,5] + x[2,0,5] + x[3,0,5] + x[4,0,5] + x[5,0,5] = 1
 R61: x[0,1,5] + x[1,1,5] + x[2,1,5] + x[3,1,5] + x[4,1,5] + x[5,1,5] = 1
 R62: x[0,2,5] + x[1,2,5] + x[2,2,5] + x[3,2,5] + x[4,2,5] + x[5,2,5] = 1
 R63: x[0,3,5] + x[1,3,5] + x[2,3,5] + x[3,3,5] + x[4,3,5] + x[5,3,5] = 1
 R64: x[0,4,5] + x[1,4,5] + x[2,4,5] + x[3,4,5] + x[4,4,5] + x[5,4,5] = 1
 R65: x[0,5,5] + x[1,5,5] + x[2,5,5] + x[3,5,5] + x[4,5,5] + x[5,5,5] = 1
 R66: x[0,0,6] + x[1,0,6] + x[2,0,6] + x[3,0,6] + x[4,0,6] + x[5,0,6] = 1
 R67: x[0,1,6] + x[1,1,6] + x[2,1,6] + x[3,1,6] + x[4,1,6] + x[5,1,6] = 1
 R68: x[0,2,6] + x[1,2,6] + x[2,2,6] + x[3,2,6] + x[4,2,6] + x[5,2,6] = 1
 R69: x[0,3,6] + x[1,3,6] + x[2,3,6] + x[3,3,6] + x[4,3,6] + x[5,3,6] = 1
 R70: x[0,4,6] + x[1,4,6] + x[2,4,6] + x[3,4,6] + x[4,4,6] + x[5,4,6] = 1
 R71: x[0,5,6] + x[1,5,6] + x[2,5,6] + x[3,5,6] + x[4,5,6] + x[5,5,6] = 1
 R72: x[0,0,1] + x[0,1,1] + x[0,2,1] + x[0,3,1] + x[0,4,1] + x[0,5,1] = 1
 R73: x[1,0,1] + x[1,1,1] + x[1,2,1] + x[1,3,1] + x[1,4,1] + x[1,5,1] = 1
 R74: x[2,0,1] + x[2,1,1] + x[2,2,1] + x[2,3,1] + x[2,4,1] + x[2,5,1] = 1
 R75: x[3,0,1] + x[3,1,1] + x[3,2,1] + x[3,3,1] + x[3,4,1] + x[3,5,1] = 1
 R76: x[4,0,1] + x[4,1,1] + x[4,2,1] + x[4,3,1] + x[4,4,1] + x[4,5,1] = 1
 R77: x[5,0,1] + x[5,1,1] + x[5,2,1] + x[5,3,1] + x[5,4,1] + x[5,5,1] = 1
 R78: x[0,0,2] + x[0,1,2] + x[0,2,2] + x[0,3,2] + x[0,4,2] + x[0,5,2] = 1
 R79: x[1,0,2] + x[1,1,2] + x[1,2,2] + x[1,3,2] + x[1,4,2] + x[1,5,2] = 1
 R80: x[2,0,2] + x[2,1,2] + x[2,2,2] + x[2,3,2] + x[2,4,2] + x[2,5,2] = 1
 R81: x[3,0,2] + x[3,1,2] + x[3,2,2] + x[3,3,2] + x[3,4,2] + x[3,5,2] = 1
 R82: x[4,0,2] + x[4,1,2] + x[4,2,2] + x[4,3,2] + x[4,4,2] + x[4,5,2] = 1
 R83: x[5,0,2] + x[5,1,2] + x[5,2,2] + x[5,3,2] + x[5,4,2] + x[5,5,2] = 1
 R84: x[0,0,3] + x[0,1,3] + x[0,2,3] + x[0,3,3] + x[0,4,3] + x[0,5,3] = 1
 R85: x[1,0,3] + x[1,1,3] + x[1,2,3] + x[1,3,3] + x[1,4,3] + x[1,5,3] = 1
 R86: x[2,0,3] + x[2,1,3] + x[2,2,3] + x[2,3,3] + x[2,4,3] + x[2,5,3] = 1
 R87: x[3,0,3] + x[3,1,3] + x[3,2,3] + x[3,3,3] + x[3,4,3] + x[3,5,3] = 1
 R88: x[4,0,3] + x[4,1,3] + x[4,2,3] + x[4,3,3] + x[4,4,3] + x[4,5,3] = 1
 R89: x[5,0,3] + x[5,1,3] + x[5,2,3] + x[5,3,3] + x[5,4,3] + x[5,5,3] = 1
 R90: x[0,0,4] + x[0,1,4] + x[0,2,4] + x[0,3,4] + x[0,4,4] + x[0,5,4] = 1
 R91: x[1,0,4] + x[1,1,4] + x[1,2,4] + x[1,3,4] + x[1,4,4] + x[1,5,4] = 1
 R92: x[2,0,4] + x[2,1,4] + x[2,2,4] + x[2,3,4] + x[2,4,4] + x[2,5,4] = 1
 R93: x[3,0,4] + x[3,1,4] + x[3,2,4] + x[3,3,4] + x[3,4,4] + x[3,5,4] = 1
 R94: x[4,0,4] + x[4,1,4] + x[4,2,4] + x[4,3,4] + x[4,4,4] + x[4,5,4] = 1
 R95: x[5,0,4] + x[5,1,4] + x[5,2,4] + x[5,3,4] + x[5,4,4] + x[5,5,4] = 1
 R96: x[0,0,5] + x[0,1,5] + x[0,2,5] + x[0,3,5] + x[0,4,5] + x[0,5,5] = 1
 R97: x[1,0,5] + x[1,1,5] + x[1,2,5] + x[1,3,5] + x[1,4,5] + x[1,5,5] = 1
 R98: x[2,0,5] + x[2,1,5] + x[2,2,5] + x[2,3,5] + x[2,4,5] + x[2,5,5] = 1
 R99: x[3,0,5] + x[3,1,5] + x[3,2,5] + x[3,3,5] + x[3,4,5] + x[3,5,5] = 1
 R100: x[4,0,5] + x[4,1,5] + x[4,2,5] + x[4,3,5] + x[4,4,5] + x[4,5,5] = 1
 R101: x[5,0,5] + x[5,1,5] + x[5,2,5] + x[5,3,5] + x[5,4,5] + x[5,5,5] = 1
 R102: x[0,0,6] + x[0,1,6] + x[0,2,6] + x[0,3,6] + x[0,4,6] + x[0,5,6] = 1
 R103: x[1,0,6] + x[1,1,6] + x[1,2,6] + x[1,3,6] + x[1,4,6] + x[1,5,6] = 1
 R104: x[2,0,6] + x[2,1,6] + x[2,2,6] + x[2,3,6] + x[2,4,6] + x[2,5,6] = 1
 R105: x[3,0,6] + x[3,1,6] + x[3,2,6] + x[3,3,6] + x[3,4,6] + x[3,5,6] = 1
 R106: x[4,0,6] + x[4,1,6] + x[4,2,6] + x[4,3,6] + x[4,4,6] + x[4,5,6] = 1
 R107: x[5,0,6] + x[5,1,6] + x[5,2,6] + x[5,3,6] + x[5,4,6] + x[5,5,6] = 1
 R108: x[0,0,1] + x[0,1,1] + x[0,2,1] + x[1,0,1] + x[1,1,1] + x[1,2,1] = 1
 R109: x[0,3,1] + x[0,4,1] + x[0,5,1] + x[1,3,1] + x[1,4,1] + x[1,5,1] = 1
 R110: x[1,0,1] + x[1,1,1] + x[1,2,1] + x[2,0,1] + x[2,1,1] + x[2,2,1] = 1
 R111: x[2,0,1] + x[2,1,1] + x[2,2,1] + x[3,0,1] + x[3,1,1] + x[3,2,1] = 1
 R112: x[2,3,1] + x[2,4,1] + x[2,5,1] + x[3,3,1] + x[3,4,1] + x[3,5,1] = 1
 R113: x[3,0,1] + x[3,1,1] + x[3,2,1] + x[4,0,1] + x[4,1,1] + x[4,2,1] = 1
 R114: x[0,0,2] + x[0,1,2] + x[0,2,2] + x[1,0,2] + x[1,1,2] + x[1,2,2] = 1
 R115: x[0,3,2] + x[0,4,2] + x[0,5,2] + x[1,3,2] + x[1,4,2] + x[1,5,2] = 1
 R116: x[1,0,2] + x[1,1,2] + x[1,2,2] + x[2,0,2] + x[2,1,2] + x[2,2,2] = 1
 R117: x[2,0,2] + x[2,1,2] + x[2,2,2] + x[3,0,2] + x[3,1,2] + x[3,2,2] = 1
 R118: x[2,3,2] + x[2,4,2] + x[2,5,2] + x[3,3,2] + x[3,4,2] + x[3,5,2] = 1
 R119: x[3,0,2] + x[3,1,2] + x[3,2,2] + x[4,0,2] + x[4,1,2] + x[4,2,2] = 1
 R120: x[0,0,3] + x[0,1,3] + x[0,2,3] + x[1,0,3] + x[1,1,3] + x[1,2,3] = 1
 R121: x[0,3,3] + x[0,4,3] + x[0,5,3] + x[1,3,3] + x[1,4,3] + x[1,5,3] = 1
 R122: x[1,0,3] + x[1,1,3] + x[1,2,3] + x[2,0,3] + x[2,1,3] + x[2,2,3] = 1
 R123: x[2,0,3] + x[2,1,3] + x[2,2,3] + x[3,0,3] + x[3,1,3] + x[3,2,3] = 1
 R124: x[2,3,3] + x[2,4,3] + x[2,5,3] + x[3,3,3] + x[3,4,3] + x[3,5,3] = 1
 R125: x[3,0,3] + x[3,1,3] + x[3,2,3] + x[4,0,3] + x[4,1,3] + x[4,2,3] = 1
 R126: x[0,0,4] + x[0,1,4] + x[0,2,4] + x[1,0,4] + x[1,1,4] + x[1,2,4] = 1
 R127: x[0,3,4] + x[0,4,4] + x[0,5,4] + x[1,3,4] + x[1,4,4] + x[1,5,4] = 1
 R128: x[1,0,4] + x[1,1,4] + x[1,2,4] + x[2,0,4] + x[2,1,4] + x[2,2,4] = 1
 R129: x[2,0,4] + x[2,1,4] + x[2,2,4] + x[3,0,4] + x[3,1,4] + x[3,2,4] = 1
 R130: x[2,3,4] + x[2,4,4] + x[2,5,4] + x[3,3,4] + x[3,4,4] + x[3,5,4] = 1
 R131: x[3,0,4] + x[3,1,4] + x[3,2,4] + x[4,0,4] + x[4,1,4] + x[4,2,4] = 1
 R132: x[0,0,5] + x[0,1,5] + x[0,2,5] + x[1,0,5] + x[1,1,5] + x[1,2,5] = 1
 R133: x[0,3,5] + x[0,4,5] + x[0,5,5] + x[1,3,5] + x[1,4,5] + x[1,5,5] = 1
 R134: x[1,0,5] + x[1,1,5] + x[1,2,5] + x[2,0,5] + x[2,1,5] + x[2,2,5] = 1
 R135: x[2,0,5] + x[2,1,5] + x[2,2,5] + x[3,0,5] + x[3,1,5] + x[3,2,5] = 1
 R136: x[2,3,5] + x[2,4,5] + x[2,5,5] + x[3,3,5] + x[3,4,5] + x[3,5,5] = 1
 R137: x[3,0,5] + x[3,1,5] + x[3,2,5] + x[4,0,5] + x[4,1,5] + x[4,2,5] = 1
 R138: x[0,0,6] + x[0,1,6] + x[0,2,6] + x[1,0,6] + x[1,1,6] + x[1,2,6] = 1
 R139: x[0,3,6] + x[0,4,6] + x[0,5,6] + x[1,3,6] + x[1,4,6] + x[1,5,6] = 1
 R140: x[1,0,6] + x[1,1,6] + x[1,2,6] + x[2,0,6] + x[2,1,6] + x[2,2,6] = 1
 R141: x[2,0,6] + x[2,1,6] + x[2,2,6] + x[3,0,6] + x[3,1,6] + x[3,2,6] = 1
 R142: x[2,3,6] + x[2,4,6] + x[2,5,6] + x[3,3,6] + x[3,4,6] + x[3,5,6] = 1
 R143: x[3,0,6] + x[3,1,6] + x[3,2,6] + x[4,0,6] + x[4,1,6] + x[4,2,6] = 1
Bounds
Binaries
 x[0,0,1] x[0,0,2] x[0,0,3] x[0,0,4] x[0,0,5] x[0,0,6] x[0,1,1] x[0,1,2]
 x[0,1,3] x[0,1,4] x[0,1,5] x[0,1,6] x[0,2,1] x[0,2,2] x[0,2,3] x[0,2,4]
 x[0,2,5] x[0,2,6] x[0,3,1] x[0,3,2] x[0,3,3] x[0,3,4] x[0,3,5] x[0,3,6]
 x[0,4,1] x[0,4,2] x[0,4,3] x[0,4,4] x[0,4,5] x[0,4,6] x[0,5,1] x[0,5,2]
 x[0,5,3] x[0,5,4] x[0,5,5] x[0,5,6] x[1,0,1] x[1,0,2] x[1,0,3] x[1,0,4]
 x[1,0,5] x[1,0,6] x[1,1,1] x[1,1,2] x[1,1,3] x[1,1,4] x[1,1,5] x[1,1,6]
 x[1,2,1] x[1,2,2] x[1,2,3] x[1,2,4] x[1,2,5] x[1,2,6] x[1,3,1] x[1,3,2]
 x[1,3,3] x[1,3,4] x[1,3,5] x[1,3,6] x[1,4,1] x[1,4,2] x[1,4,3] x[1,4,4]
 x[1,4,5] x[1,4,6] x[1,5,1] x[1,5,2] x[1,5,3] x[1,5,4] x[1,5,5] x[1,5,6]
 x[2,0,1] x[2,0,2] x[2,0,3] x[2,0,4] x[2,0,5] x[2,0,6] x[2,1,1] x[2,1,2]
 x[2,1,3] x[2,1,4] x[2,1,5] x[2,1,6] x[2,2,1] x[2,2,2] x[2,2,3] x[2,2,4]
 x[2,2,5] x[2,2,6] x[2,3,1] x[2,3,2] x[2,3,3] x[2,3,4] x[2,3,5] x[2,3,6]
 x[2,4,1] x[2,4,2] x[2,4,3] x[2,4,4] x[2,4,5] x[2,4,6] x[2,5,1] x[2,5,2]
 x[2,5,3] x[2,5,4] x[2,5,5] x[2,5,6] x[3,0,1] x[3,0,2] x[3,0,3] x[3,0,4]
 x[3,0,5] x[3,0,6] x[3,1,1] x[3,1,2] x[3,1,3] x[3,1,4] x[3,1,5] x[3,1,6]
 x[3,2,1] x[3,2,2] x[3,2,3] x[3,2,4] x[3,2,5] x[3,2,6] x[3,3,1] x[3,3,2]
 x[3,3,3] x[3,3,4] x[3,3,5] x[3,3,6] x[3,4,1] x[3,4,2] x[3,4,3] x[3,4,4]
 x[3,4,5] x[3,4,6] x[3,5,1] x[3,5,2] x[3,5,3] x[3,5,4] x[3,5,5] x[3,5,6]
 x[4,0,1] x[4,0,2] x[4,0,3] x[4,0,4] x[4,0,5] x[4,0,6] x[4,1,1] x[4,1,2]
 x[4,1,3] x[4,1,4] x[4,1,5] x[4,1,6] x[4,2,1] x[4,2,2] x[4,2,3] x[4,2,4]
 x[4,2,5] x[4,2,6] x[4,3,1] x[4,3,2] x[4,3,3] x[4,3,4] x[4,3,5] x[4,3,6]
 x[4,4,1] x[4,4,2] x[4,4,3] x[4,4,4] x[4,4,5] x[4,4,6] x[4,5,1] x[4,5,2]
 x[4,5,3] x[4,5,4] x[4,5,5] x[4,5,6] x[5,0,1] x[5,0,2] x[5,0,3] x[5,0,4]
 x[5,0,5] x[5,0,6] x[5,1,1] x[5,1,2] x[5,1,3] x[5,1,4] x[5,1,5] x[5,1,6]
 x[5,2,1] x[5,2,2] x[5,2,3] x[5,2,4] x[5,2,5] x[5,2,6] x[5,3,1] x[5,3,2]
 x[5,3,3] x[5,3,4] x[5,3,5] x[5,3,6] x[5,4,1] x[5,4,2] x[5,4,3] x[5,4,4]
 x[5,4,5] x[5,4,6] x[5,5,1] x[5,5,2] x[5,5,3] x[5,5,4] x[5,5,5] x[5,5,6]
End
